; 
(set-info :status unknown)
(declare-fun var_7_0 () Int)
(declare-fun var_6_0 () Int)
(declare-fun var_5_0 () Int)
(declare-fun var_4_0 () Int)
(declare-fun var_3_0 () Int)
(declare-fun var_2_0 () Int)
(declare-fun var_1_0 () Int)
(declare-fun var_0_0 () Int)
(declare-fun a_0_0_0 () Int)
(declare-fun a_0_0_1 () Int)
(declare-fun a_0_0 () Int)
(declare-fun var_1_1 () Int)
(declare-fun a_0_1_0 () Int)
(declare-fun a_0_1_1 () Int)
(declare-fun a_0_1 () Int)
(declare-fun var_2_1 () Int)
(declare-fun b_0_0_0 () Int)
(declare-fun b_0_0_1 () Int)
(declare-fun b_0_3 () Int)
(declare-fun a_6_0_0 () Int)
(declare-fun a_6_0_1 () Int)
(declare-fun a_6_0 () Int)
(declare-fun var_0_1 () Int)
(declare-fun a_6_1_0 () Int)
(declare-fun a_6_1_1 () Int)
(declare-fun a_6_1 () Int)
(declare-fun var_5_1 () Int)
(declare-fun a_5_0_0 () Int)
(declare-fun a_5_0_1 () Int)
(declare-fun a_5_0 () Int)
(declare-fun var_2_2 () Int)
(declare-fun a_5_1_0 () Int)
(declare-fun a_5_1_1 () Int)
(declare-fun a_5_1 () Int)
(declare-fun var_3_1 () Int)
(declare-fun b_5_0_0 () Int)
(declare-fun b_5_0_1 () Int)
(declare-fun b_5_7 () Int)
(declare-fun a_9_0_0 () Int)
(declare-fun a_9_0_1 () Int)
(declare-fun a_9_0 () Int)
(declare-fun var_1_2 () Int)
(declare-fun a_9_1_0 () Int)
(declare-fun a_9_1_1 () Int)
(declare-fun a_9_1 () Int)
(declare-fun var_7_1 () Int)
(assert
 (let ((?x30 (ite (= var_7_0 0) 1 0)))
 (let ((?x28 (ite (= var_6_0 0) 1 0)))
 (let ((?x26 (ite (= var_5_0 0) 1 0)))
 (let ((?x24 (ite (= var_4_0 0) 1 0)))
 (let ((?x22 (ite (= var_3_0 0) 1 0)))
 (let ((?x20 (ite (= var_2_0 0) 1 0)))
 (let ((?x18 (ite (= var_1_0 0) 1 0)))
 (let ((?x16 (ite (= var_0_0 0) 1 0)))
 (<= (+ ?x16 ?x18 ?x20 ?x22 ?x24 ?x26 ?x28 ?x30) 4))))))))))
(assert
 (let (($x55 (<= var_5_0 2147483647)))
 (let (($x53 (>= var_5_0 (- 2147483648))))
 (and $x53 $x55))))
(assert
 (let (($x59 (<= a_0_0_0 2147483647)))
 (let (($x58 (>= a_0_0_0 (- 2147483648))))
 (and $x58 $x59))))
(assert
 (let (($x63 (<= var_4_0 2147483647)))
 (let (($x62 (>= var_4_0 (- 2147483648))))
 (and $x62 $x63))))
(assert
 (let (($x67 (<= a_0_0_1 2147483647)))
 (let (($x66 (>= a_0_0_1 (- 2147483648))))
 (and $x66 $x67))))
(assert
 (let (($x72 (<= a_0_0 2147483647)))
 (let (($x71 (>= a_0_0 (- 2147483648))))
 (and $x71 $x72))))
(assert
 (and (<= (* a_0_0_0 var_5_0) 2147483647) (>= (* a_0_0_0 var_5_0) (- 2147483648))))
(assert
 (and (<= (* a_0_0_0 var_5_0) 2147483647) (>= (* a_0_0_0 var_5_0) (- 2147483648))))
(assert
 (and (<= (* a_0_0_1 var_4_0) 2147483647) (>= (* a_0_0_1 var_4_0) (- 2147483648))))
(assert
 (and (<= (+ (* a_0_0_0 var_5_0) (* a_0_0_1 var_4_0)) 2147483647) (>= (+ (* a_0_0_0 var_5_0) (* a_0_0_1 var_4_0)) (- 2147483648))))
(assert
 (let (($x71 (>= a_0_0 (- 2147483648))))
 (let (($x72 (<= a_0_0 2147483647)))
 (and $x72 $x71))))
(assert
 (let ((?x69 (* a_0_0_1 var_4_0)))
 (let ((?x61 (* a_0_0_0 var_5_0)))
 (let ((?x80 (+ ?x61 ?x69)))
 (let ((?x93 (+ ?x80 a_0_0)))
 (and (<= ?x93 2147483647) (>= ?x93 (- 2147483648))))))))
(assert
 (let ((?x69 (* a_0_0_1 var_4_0)))
 (let ((?x61 (* a_0_0_0 var_5_0)))
 (let ((?x80 (+ ?x61 ?x69)))
 (let ((?x93 (+ ?x80 a_0_0)))
 (= var_1_1 ?x93))))))
(assert
 (let ((?x112 (ite (= a_0_0 0) 1 0)))
 (let ((?x110 (ite (= a_0_0_1 0) 1 0)))
 (let ((?x106 (ite (= a_0_0_0 0) 1 0)))
 (<= (+ ?x106 ?x110 ?x112) 1)))))
(assert
 (let (($x116 (<= var_0_0 2147483647)))
 (let (($x115 (>= var_0_0 (- 2147483648))))
 (and $x115 $x116))))
(assert
 (let (($x120 (<= a_0_1_0 2147483647)))
 (let (($x119 (>= a_0_1_0 (- 2147483648))))
 (and $x119 $x120))))
(assert
 (let (($x124 (<= var_2_0 2147483647)))
 (let (($x123 (>= var_2_0 (- 2147483648))))
 (and $x123 $x124))))
(assert
 (let (($x128 (<= a_0_1_1 2147483647)))
 (let (($x127 (>= a_0_1_1 (- 2147483648))))
 (and $x127 $x128))))
(assert
 (let (($x133 (<= a_0_1 2147483647)))
 (let (($x132 (>= a_0_1 (- 2147483648))))
 (and $x132 $x133))))
(assert
 (and (<= (* a_0_1_0 var_0_0) 2147483647) (>= (* a_0_1_0 var_0_0) (- 2147483648))))
(assert
 (and (<= (* a_0_1_0 var_0_0) 2147483647) (>= (* a_0_1_0 var_0_0) (- 2147483648))))
(assert
 (and (<= (* a_0_1_1 var_2_0) 2147483647) (>= (* a_0_1_1 var_2_0) (- 2147483648))))
(assert
 (and (<= (+ (* a_0_1_0 var_0_0) (* a_0_1_1 var_2_0)) 2147483647) (>= (+ (* a_0_1_0 var_0_0) (* a_0_1_1 var_2_0)) (- 2147483648))))
(assert
 (let (($x132 (>= a_0_1 (- 2147483648))))
 (let (($x133 (<= a_0_1 2147483647)))
 (and $x133 $x132))))
(assert
 (let ((?x130 (* a_0_1_1 var_2_0)))
 (let ((?x122 (* a_0_1_0 var_0_0)))
 (let ((?x141 (+ ?x122 ?x130)))
 (let ((?x154 (+ ?x141 a_0_1)))
 (and (<= ?x154 2147483647) (>= ?x154 (- 2147483648))))))))
(assert
 (let ((?x130 (* a_0_1_1 var_2_0)))
 (let ((?x122 (* a_0_1_0 var_0_0)))
 (let ((?x141 (+ ?x122 ?x130)))
 (let ((?x154 (+ ?x141 a_0_1)))
 (= var_2_1 ?x154))))))
(assert
 (let ((?x172 (ite (= a_0_1 0) 1 0)))
 (let ((?x170 (ite (= a_0_1_1 0) 1 0)))
 (let ((?x166 (ite (= a_0_1_0 0) 1 0)))
 (<= (+ ?x166 ?x170 ?x172) 1)))))
(assert
 (let (($x176 (<= var_2_1 2147483647)))
 (let (($x175 (>= var_2_1 (- 2147483648))))
 (and $x175 $x176))))
(assert
 (let (($x180 (<= b_0_0_0 2147483647)))
 (let (($x179 (>= b_0_0_0 (- 2147483648))))
 (and $x179 $x180))))
(assert
 (let (($x184 (<= var_1_1 2147483647)))
 (let (($x183 (>= var_1_1 (- 2147483648))))
 (and $x183 $x184))))
(assert
 (let (($x188 (<= b_0_0_1 2147483647)))
 (let (($x187 (>= b_0_0_1 (- 2147483648))))
 (and $x187 $x188))))
(assert
 (let ((?x194 (ite (= b_0_0_1 0) 1 0)))
 (let ((?x192 (ite (= b_0_0_0 0) 1 0)))
 (<= (+ ?x192 ?x194) 1))))
(assert
 (let (($x199 (<= b_0_3 2147483647)))
 (let (($x198 (>= b_0_3 (- 2147483648))))
 (and $x198 $x199))))
(assert
 (and (<= (* b_0_0_0 var_2_1) 2147483647) (>= (* b_0_0_0 var_2_1) (- 2147483648))))
(assert
 (and (<= (* b_0_0_0 var_2_1) 2147483647) (>= (* b_0_0_0 var_2_1) (- 2147483648))))
(assert
 (and (<= (* b_0_0_1 var_1_1) 2147483647) (>= (* b_0_0_1 var_1_1) (- 2147483648))))
(assert
 (and (<= (+ (* b_0_0_0 var_2_1) (* b_0_0_1 var_1_1)) 2147483647) (>= (+ (* b_0_0_0 var_2_1) (* b_0_0_1 var_1_1)) (- 2147483648))))
(assert
 (let (($x198 (>= b_0_3 (- 2147483648))))
 (let (($x199 (<= b_0_3 2147483647)))
 (and $x199 $x198))))
(assert
 (let ((?x190 (* b_0_0_1 var_1_1)))
 (let ((?x182 (* b_0_0_0 var_2_1)))
 (let ((?x207 (+ ?x182 ?x190)))
 (let ((?x220 (+ ?x207 b_0_3)))
 (and (<= ?x220 2147483647) (>= ?x220 (- 2147483648))))))))
(assert
 (let ((?x190 (* b_0_0_1 var_1_1)))
 (let ((?x182 (* b_0_0_0 var_2_1)))
 (let ((?x207 (+ ?x182 ?x190)))
 (let ((?x220 (+ ?x207 b_0_3)))
 (< ?x220 0))))))
(assert
 (let (($x234 (<= var_7_0 2147483647)))
 (let (($x233 (>= var_7_0 (- 2147483648))))
 (and $x233 $x234))))
(assert
 (let (($x238 (<= a_6_0_0 2147483647)))
 (let (($x237 (>= a_6_0_0 (- 2147483648))))
 (and $x237 $x238))))
(assert
 (let (($x242 (<= var_6_0 2147483647)))
 (let (($x241 (>= var_6_0 (- 2147483648))))
 (and $x241 $x242))))
(assert
 (let (($x246 (<= a_6_0_1 2147483647)))
 (let (($x245 (>= a_6_0_1 (- 2147483648))))
 (and $x245 $x246))))
(assert
 (let (($x251 (<= a_6_0 2147483647)))
 (let (($x250 (>= a_6_0 (- 2147483648))))
 (and $x250 $x251))))
(assert
 (and (<= (* a_6_0_0 var_7_0) 2147483647) (>= (* a_6_0_0 var_7_0) (- 2147483648))))
(assert
 (and (<= (* a_6_0_0 var_7_0) 2147483647) (>= (* a_6_0_0 var_7_0) (- 2147483648))))
(assert
 (and (<= (* a_6_0_1 var_6_0) 2147483647) (>= (* a_6_0_1 var_6_0) (- 2147483648))))
(assert
 (and (<= (+ (* a_6_0_0 var_7_0) (* a_6_0_1 var_6_0)) 2147483647) (>= (+ (* a_6_0_0 var_7_0) (* a_6_0_1 var_6_0)) (- 2147483648))))
(assert
 (let (($x250 (>= a_6_0 (- 2147483648))))
 (let (($x251 (<= a_6_0 2147483647)))
 (and $x251 $x250))))
(assert
 (let ((?x248 (* a_6_0_1 var_6_0)))
 (let ((?x240 (* a_6_0_0 var_7_0)))
 (let ((?x259 (+ ?x240 ?x248)))
 (let ((?x272 (+ ?x259 a_6_0)))
 (and (<= ?x272 2147483647) (>= ?x272 (- 2147483648))))))))
(assert
 (let ((?x248 (* a_6_0_1 var_6_0)))
 (let ((?x240 (* a_6_0_0 var_7_0)))
 (let ((?x259 (+ ?x240 ?x248)))
 (let ((?x272 (+ ?x259 a_6_0)))
 (= var_0_1 ?x272))))))
(assert
 (let ((?x290 (ite (= a_6_0 0) 1 0)))
 (let ((?x288 (ite (= a_6_0_1 0) 1 0)))
 (let ((?x284 (ite (= a_6_0_0 0) 1 0)))
 (<= (+ ?x284 ?x288 ?x290) 1)))))
(assert
 (let (($x294 (<= var_3_0 2147483647)))
 (let (($x293 (>= var_3_0 (- 2147483648))))
 (and $x293 $x294))))
(assert
 (let (($x298 (<= a_6_1_0 2147483647)))
 (let (($x297 (>= a_6_1_0 (- 2147483648))))
 (and $x297 $x298))))
(assert
 (let (($x63 (<= var_4_0 2147483647)))
 (let (($x62 (>= var_4_0 (- 2147483648))))
 (and $x62 $x63))))
(assert
 (let (($x303 (<= a_6_1_1 2147483647)))
 (let (($x302 (>= a_6_1_1 (- 2147483648))))
 (and $x302 $x303))))
(assert
 (let (($x308 (<= a_6_1 2147483647)))
 (let (($x307 (>= a_6_1 (- 2147483648))))
 (and $x307 $x308))))
(assert
 (and (<= (* a_6_1_0 var_3_0) 2147483647) (>= (* a_6_1_0 var_3_0) (- 2147483648))))
(assert
 (and (<= (* a_6_1_0 var_3_0) 2147483647) (>= (* a_6_1_0 var_3_0) (- 2147483648))))
(assert
 (and (<= (* a_6_1_1 var_4_0) 2147483647) (>= (* a_6_1_1 var_4_0) (- 2147483648))))
(assert
 (and (<= (+ (* a_6_1_0 var_3_0) (* a_6_1_1 var_4_0)) 2147483647) (>= (+ (* a_6_1_0 var_3_0) (* a_6_1_1 var_4_0)) (- 2147483648))))
(assert
 (let (($x307 (>= a_6_1 (- 2147483648))))
 (let (($x308 (<= a_6_1 2147483647)))
 (and $x308 $x307))))
(assert
 (let ((?x305 (* a_6_1_1 var_4_0)))
 (let ((?x300 (* a_6_1_0 var_3_0)))
 (let ((?x316 (+ ?x300 ?x305)))
 (let ((?x329 (+ ?x316 a_6_1)))
 (and (<= ?x329 2147483647) (>= ?x329 (- 2147483648))))))))
(assert
 (let ((?x305 (* a_6_1_1 var_4_0)))
 (let ((?x300 (* a_6_1_0 var_3_0)))
 (let ((?x316 (+ ?x300 ?x305)))
 (let ((?x329 (+ ?x316 a_6_1)))
 (= var_5_1 ?x329))))))
(assert
 (let ((?x347 (ite (= a_6_1 0) 1 0)))
 (let ((?x345 (ite (= a_6_1_1 0) 1 0)))
 (let ((?x341 (ite (= a_6_1_0 0) 1 0)))
 (<= (+ ?x341 ?x345 ?x347) 1)))))
(assert
 (let (($x294 (<= var_3_0 2147483647)))
 (let (($x293 (>= var_3_0 (- 2147483648))))
 (and $x293 $x294))))
(assert
 (let (($x352 (<= a_5_0_0 2147483647)))
 (let (($x351 (>= a_5_0_0 (- 2147483648))))
 (and $x351 $x352))))
(assert
 (let (($x234 (<= var_7_0 2147483647)))
 (let (($x233 (>= var_7_0 (- 2147483648))))
 (and $x233 $x234))))
(assert
 (let (($x357 (<= a_5_0_1 2147483647)))
 (let (($x356 (>= a_5_0_1 (- 2147483648))))
 (and $x356 $x357))))
(assert
 (let (($x362 (<= a_5_0 2147483647)))
 (let (($x361 (>= a_5_0 (- 2147483648))))
 (and $x361 $x362))))
(assert
 (and (<= (* a_5_0_0 var_3_0) 2147483647) (>= (* a_5_0_0 var_3_0) (- 2147483648))))
(assert
 (and (<= (* a_5_0_0 var_3_0) 2147483647) (>= (* a_5_0_0 var_3_0) (- 2147483648))))
(assert
 (and (<= (* a_5_0_1 var_7_0) 2147483647) (>= (* a_5_0_1 var_7_0) (- 2147483648))))
(assert
 (and (<= (+ (* a_5_0_0 var_3_0) (* a_5_0_1 var_7_0)) 2147483647) (>= (+ (* a_5_0_0 var_3_0) (* a_5_0_1 var_7_0)) (- 2147483648))))
(assert
 (let (($x361 (>= a_5_0 (- 2147483648))))
 (let (($x362 (<= a_5_0 2147483647)))
 (and $x362 $x361))))
(assert
 (let ((?x359 (* a_5_0_1 var_7_0)))
 (let ((?x354 (* a_5_0_0 var_3_0)))
 (let ((?x370 (+ ?x354 ?x359)))
 (let ((?x383 (+ ?x370 a_5_0)))
 (and (<= ?x383 2147483647) (>= ?x383 (- 2147483648))))))))
(assert
 (let ((?x359 (* a_5_0_1 var_7_0)))
 (let ((?x354 (* a_5_0_0 var_3_0)))
 (let ((?x370 (+ ?x354 ?x359)))
 (let ((?x383 (+ ?x370 a_5_0)))
 (= var_2_2 ?x383))))))
(assert
 (let ((?x401 (ite (= a_5_0 0) 1 0)))
 (let ((?x399 (ite (= a_5_0_1 0) 1 0)))
 (let ((?x395 (ite (= a_5_0_0 0) 1 0)))
 (<= (+ ?x395 ?x399 ?x401) 1)))))
(assert
 (let (($x405 (<= var_2_2 2147483647)))
 (let (($x404 (>= var_2_2 (- 2147483648))))
 (and $x404 $x405))))
(assert
 (let (($x409 (<= a_5_1_0 2147483647)))
 (let (($x408 (>= a_5_1_0 (- 2147483648))))
 (and $x408 $x409))))
(assert
 (let (($x413 (<= var_5_1 2147483647)))
 (let (($x412 (>= var_5_1 (- 2147483648))))
 (and $x412 $x413))))
(assert
 (let (($x417 (<= a_5_1_1 2147483647)))
 (let (($x416 (>= a_5_1_1 (- 2147483648))))
 (and $x416 $x417))))
(assert
 (let (($x422 (<= a_5_1 2147483647)))
 (let (($x421 (>= a_5_1 (- 2147483648))))
 (and $x421 $x422))))
(assert
 (and (<= (* a_5_1_0 var_2_2) 2147483647) (>= (* a_5_1_0 var_2_2) (- 2147483648))))
(assert
 (and (<= (* a_5_1_0 var_2_2) 2147483647) (>= (* a_5_1_0 var_2_2) (- 2147483648))))
(assert
 (and (<= (* a_5_1_1 var_5_1) 2147483647) (>= (* a_5_1_1 var_5_1) (- 2147483648))))
(assert
 (and (<= (+ (* a_5_1_0 var_2_2) (* a_5_1_1 var_5_1)) 2147483647) (>= (+ (* a_5_1_0 var_2_2) (* a_5_1_1 var_5_1)) (- 2147483648))))
(assert
 (let (($x421 (>= a_5_1 (- 2147483648))))
 (let (($x422 (<= a_5_1 2147483647)))
 (and $x422 $x421))))
(assert
 (let ((?x419 (* a_5_1_1 var_5_1)))
 (let ((?x411 (* a_5_1_0 var_2_2)))
 (let ((?x430 (+ ?x411 ?x419)))
 (let ((?x443 (+ ?x430 a_5_1)))
 (and (<= ?x443 2147483647) (>= ?x443 (- 2147483648))))))))
(assert
 (let ((?x419 (* a_5_1_1 var_5_1)))
 (let ((?x411 (* a_5_1_0 var_2_2)))
 (let ((?x430 (+ ?x411 ?x419)))
 (let ((?x443 (+ ?x430 a_5_1)))
 (= var_3_1 ?x443))))))
(assert
 (let ((?x461 (ite (= a_5_1 0) 1 0)))
 (let ((?x459 (ite (= a_5_1_1 0) 1 0)))
 (let ((?x455 (ite (= a_5_1_0 0) 1 0)))
 (<= (+ ?x455 ?x459 ?x461) 1)))))
(assert
 (let (($x465 (<= var_3_1 2147483647)))
 (let (($x464 (>= var_3_1 (- 2147483648))))
 (and $x464 $x465))))
(assert
 (let (($x469 (<= b_5_0_0 2147483647)))
 (let (($x468 (>= b_5_0_0 (- 2147483648))))
 (and $x468 $x469))))
(assert
 (let (($x405 (<= var_2_2 2147483647)))
 (let (($x404 (>= var_2_2 (- 2147483648))))
 (and $x404 $x405))))
(assert
 (let (($x474 (<= b_5_0_1 2147483647)))
 (let (($x473 (>= b_5_0_1 (- 2147483648))))
 (and $x473 $x474))))
(assert
 (let ((?x480 (ite (= b_5_0_1 0) 1 0)))
 (let ((?x478 (ite (= b_5_0_0 0) 1 0)))
 (<= (+ ?x478 ?x480) 1))))
(assert
 (let (($x485 (<= b_5_7 2147483647)))
 (let (($x484 (>= b_5_7 (- 2147483648))))
 (and $x484 $x485))))
(assert
 (and (<= (* b_5_0_0 var_3_1) 2147483647) (>= (* b_5_0_0 var_3_1) (- 2147483648))))
(assert
 (and (<= (* b_5_0_0 var_3_1) 2147483647) (>= (* b_5_0_0 var_3_1) (- 2147483648))))
(assert
 (and (<= (* b_5_0_1 var_2_2) 2147483647) (>= (* b_5_0_1 var_2_2) (- 2147483648))))
(assert
 (and (<= (+ (* b_5_0_0 var_3_1) (* b_5_0_1 var_2_2)) 2147483647) (>= (+ (* b_5_0_0 var_3_1) (* b_5_0_1 var_2_2)) (- 2147483648))))
(assert
 (let (($x484 (>= b_5_7 (- 2147483648))))
 (let (($x485 (<= b_5_7 2147483647)))
 (and $x485 $x484))))
(assert
 (let ((?x476 (* b_5_0_1 var_2_2)))
 (let ((?x471 (* b_5_0_0 var_3_1)))
 (let ((?x493 (+ ?x471 ?x476)))
 (let ((?x506 (+ ?x493 b_5_7)))
 (and (<= ?x506 2147483647) (>= ?x506 (- 2147483648))))))))
(assert
 (let ((?x476 (* b_5_0_1 var_2_2)))
 (let ((?x471 (* b_5_0_0 var_3_1)))
 (let ((?x493 (+ ?x471 ?x476)))
 (let ((?x506 (+ ?x493 b_5_7)))
 (< ?x506 0))))))
(assert
 (let (($x520 (<= var_0_1 2147483647)))
 (let (($x519 (>= var_0_1 (- 2147483648))))
 (and $x519 $x520))))
(assert
 (let (($x524 (<= a_9_0_0 2147483647)))
 (let (($x523 (>= a_9_0_0 (- 2147483648))))
 (and $x523 $x524))))
(assert
 (let (($x413 (<= var_5_1 2147483647)))
 (let (($x412 (>= var_5_1 (- 2147483648))))
 (and $x412 $x413))))
(assert
 (let (($x529 (<= a_9_0_1 2147483647)))
 (let (($x528 (>= a_9_0_1 (- 2147483648))))
 (and $x528 $x529))))
(assert
 (let (($x534 (<= a_9_0 2147483647)))
 (let (($x533 (>= a_9_0 (- 2147483648))))
 (and $x533 $x534))))
(assert
 (and (<= (* a_9_0_0 var_0_1) 2147483647) (>= (* a_9_0_0 var_0_1) (- 2147483648))))
(assert
 (and (<= (* a_9_0_0 var_0_1) 2147483647) (>= (* a_9_0_0 var_0_1) (- 2147483648))))
(assert
 (and (<= (* a_9_0_1 var_5_1) 2147483647) (>= (* a_9_0_1 var_5_1) (- 2147483648))))
(assert
 (and (<= (+ (* a_9_0_0 var_0_1) (* a_9_0_1 var_5_1)) 2147483647) (>= (+ (* a_9_0_0 var_0_1) (* a_9_0_1 var_5_1)) (- 2147483648))))
(assert
 (let (($x533 (>= a_9_0 (- 2147483648))))
 (let (($x534 (<= a_9_0 2147483647)))
 (and $x534 $x533))))
(assert
 (let ((?x531 (* a_9_0_1 var_5_1)))
 (let ((?x526 (* a_9_0_0 var_0_1)))
 (let ((?x542 (+ ?x526 ?x531)))
 (let ((?x555 (+ ?x542 a_9_0)))
 (and (<= ?x555 2147483647) (>= ?x555 (- 2147483648))))))))
(assert
 (let ((?x531 (* a_9_0_1 var_5_1)))
 (let ((?x526 (* a_9_0_0 var_0_1)))
 (let ((?x542 (+ ?x526 ?x531)))
 (let ((?x555 (+ ?x542 a_9_0)))
 (= var_1_2 ?x555))))))
(assert
 (let ((?x573 (ite (= a_9_0 0) 1 0)))
 (let ((?x571 (ite (= a_9_0_1 0) 1 0)))
 (let ((?x567 (ite (= a_9_0_0 0) 1 0)))
 (<= (+ ?x567 ?x571 ?x573) 1)))))
(assert
 (let (($x520 (<= var_0_1 2147483647)))
 (let (($x519 (>= var_0_1 (- 2147483648))))
 (and $x519 $x520))))
(assert
 (let (($x578 (<= a_9_1_0 2147483647)))
 (let (($x577 (>= a_9_1_0 (- 2147483648))))
 (and $x577 $x578))))
(assert
 (let (($x413 (<= var_5_1 2147483647)))
 (let (($x412 (>= var_5_1 (- 2147483648))))
 (and $x412 $x413))))
(assert
 (let (($x583 (<= a_9_1_1 2147483647)))
 (let (($x582 (>= a_9_1_1 (- 2147483648))))
 (and $x582 $x583))))
(assert
 (let (($x588 (<= a_9_1 2147483647)))
 (let (($x587 (>= a_9_1 (- 2147483648))))
 (and $x587 $x588))))
(assert
 (and (<= (* a_9_1_0 var_0_1) 2147483647) (>= (* a_9_1_0 var_0_1) (- 2147483648))))
(assert
 (and (<= (* a_9_1_0 var_0_1) 2147483647) (>= (* a_9_1_0 var_0_1) (- 2147483648))))
(assert
 (and (<= (* a_9_1_1 var_5_1) 2147483647) (>= (* a_9_1_1 var_5_1) (- 2147483648))))
(assert
 (and (<= (+ (* a_9_1_0 var_0_1) (* a_9_1_1 var_5_1)) 2147483647) (>= (+ (* a_9_1_0 var_0_1) (* a_9_1_1 var_5_1)) (- 2147483648))))
(assert
 (let (($x587 (>= a_9_1 (- 2147483648))))
 (let (($x588 (<= a_9_1 2147483647)))
 (and $x588 $x587))))
(assert
 (let ((?x585 (* a_9_1_1 var_5_1)))
 (let ((?x580 (* a_9_1_0 var_0_1)))
 (let ((?x596 (+ ?x580 ?x585)))
 (let ((?x609 (+ ?x596 a_9_1)))
 (and (<= ?x609 2147483647) (>= ?x609 (- 2147483648))))))))
(assert
 (let ((?x585 (* a_9_1_1 var_5_1)))
 (let ((?x580 (* a_9_1_0 var_0_1)))
 (let ((?x596 (+ ?x580 ?x585)))
 (let ((?x609 (+ ?x596 a_9_1)))
 (= var_7_1 ?x609))))))
(assert
 (let ((?x627 (ite (= a_9_1 0) 1 0)))
 (let ((?x625 (ite (= a_9_1_1 0) 1 0)))
 (let ((?x621 (ite (= a_9_1_0 0) 1 0)))
 (<= (+ ?x621 ?x625 ?x627) 1)))))
(check-sat)
